NAME lp_typeD_873
OBJSENSE MAX
ROWS
 N  OBJ
 L  c0      
 L  c1      
 G  c2      
 G  c3      
 L  c_key_upper
 G  c_key_lower
 G  _chain_constr_1
 G  _chain_constr_2
 G  _chain_constr_3
 G  _chain_cycle
COLUMNS
    x0        OBJ       8.6927944067610463e-01
    x0        c0        1.8270249932837355e+00
    x0        c1        1.0275353330219186e+00
    x0        c2        1.5386200305023574e+00
    x0        c3        0.981232212370448
    x0        c_key_upper  1.6159600345443745e+00
    x0        c_key_lower  1.6159600345443745e+00
    x1        OBJ       7.5689617130610587e-01
    x1        c0        1.6291351322101251e+00
    x1        c1        1.5968198959517361e+00
    x1        c2        1.0959501652421637e+00
    x1        c3        1.9952448652469787e+00
    x1        c_key_upper  1.0551180447610624e+00
    x1        c_key_lower  1.0551180447610624e+00
    x2        OBJ       9.9200267428786693e-01
    x2        c0        1.4692340022615069e+00
    x2        c1        1.4676695023487112e+00
    x2        c2        1.29950839604724
    x2        c3        6.1023509166541268e-01
    x2        c_key_upper  1.1532634484436866e+00
    x2        c_key_lower  1.1532634484436866e+00
    x3        OBJ       7.5661396419285165e-01
    x3        c0        8.5484570082962974e-01
    x3        c1        5.8676430342754882e-01
    x3        c2        1.4094871565775273e+00
    x3        c3        1.1633811941318513e+00
    x3        c_key_upper  1.2047588140132899e+00
    x3        c_key_lower  1.2047588140132899e+00
    x4        OBJ       0.676906811106359
    x4        c0        1.6811567928726816e+00
    x4        c1        1.6856835078047525e+00
    x4        c2        8.0547935971291718e-01
    x4        c3        1.9969876832602378e+00
    x4        c_key_upper  1.1079782100918558e+00
    x4        c_key_lower  1.1079782100918558e+00
    x5        OBJ       1.3174057905337788e+00
    x5        c0        1.9228894229073785e+00
    x5        c1        7.0413394819532349e-01
    x5        c2        1.7088361748681393e+00
    x5        c3        5.2258219532666250e-01
    x5        c_key_upper  1.8135918948566863e+00
    x5        c_key_lower  1.8135918948566863e+00
    x6        OBJ       1.1060616800434280e+00
    x6        c0        1.2898370694352548e+00
    x6        c1        1.1774235300394067e+00
    x6        c2        7.7178225158780411e-01
    x6        c3        5.8584789384880376e-01
    x6        c_key_upper  1.3850546282334428e+00
    x6        c_key_lower  1.3850546282334428e+00
    x7        OBJ       8.5573495278435463e-01
    x7        c0        1.9878067698004274e+00
    x7        c1        1.0432416654576997e+00
    x7        c2        1.6888696263462490e+00
    x7        c3        6.3730250975880165e-01
    x7        c_key_upper  1.4509469798752084e+00
    x7        c_key_lower  1.4509469798752084e+00
    _chain_var_0  _chain_constr_1  -1
    _chain_var_0  _chain_cycle  1
    _chain_var_1  _chain_constr_1  1
    _chain_var_1  _chain_constr_2  -1
    _chain_var_2  _chain_constr_2  1
    _chain_var_2  _chain_constr_3  -1
    _chain_var_3  _chain_constr_3  1
    _chain_var_3  _chain_cycle  -1
RHS
    RHS1      c0        5.7347189997624611e+01
    RHS1      c1        4.9401782192468715e+01
    RHS1      c2        1.4067422658215079e+01
    RHS1      c3        1.3777717180452456e+01
    RHS1      c_key_upper  5.3933360274098035e+01
    RHS1      c_key_lower  2.6966680137049018e+01
    RHS1      _chain_constr_1  10
    RHS1      _chain_constr_2  10
    RHS1      _chain_constr_3  10
    RHS1      _chain_cycle  10
BOUNDS
 UP BND1      x0        10
 UP BND1      x1        10
 UP BND1      x2        10
 UP BND1      x3        10
 UP BND1      x4        10
 UP BND1      x5        10
 UP BND1      x6        10
 UP BND1      x7        10
 UP BND1      _chain_var_0  100
 UP BND1      _chain_var_1  100
 UP BND1      _chain_var_2  100
 UP BND1      _chain_var_3  100
ENDATA
